
Log started (V12.10.0.0) Thu Apr  8 06:31:44 2021


Problem 'asset.lp' read.
Read time = 0.00 sec. (0.13 ticks)
New value for default parallel thread count: 1
New value for time limit in seconds: 200
Version identifier: 12.10.0.0 | 2019-11-26 | 843d4de
CPXPARAM_Threads                                 1
CPXPARAM_TimeLimit                               200
Found incumbent of value -0.887266 after 0.00 sec. (0.06 ticks)
Tried aggregator 3 times.
MIP Presolve eliminated 424 rows and 238 columns.
MIP Presolve modified 1058 coefficients.
Aggregator did 359 substitutions.
Reduced MIP has 435 rows, 484 columns, and 2056 nonzeros.
Reduced MIP has 432 binaries, 26 generals, 0 SOSs, and 0 indicators.
Presolve time = 0.01 sec. (5.23 ticks)
Probing fixed 74 vars, tightened 2 bounds.
Probing time = 0.00 sec. (1.69 ticks)
Cover probing fixed 0 vars, tightened 44 bounds.
Tried aggregator 1 time.
MIP Presolve eliminated 78 rows and 78 columns.
MIP Presolve modified 124 coefficients.
Reduced MIP has 357 rows, 406 columns, and 1599 nonzeros.
Reduced MIP has 356 binaries, 24 generals, 0 SOSs, and 0 indicators.
Presolve time = 0.00 sec. (0.92 ticks)
Probing time = 0.00 sec. (1.21 ticks)
Tried aggregator 1 time.
Detecting symmetries...
MIP Presolve modified 54 coefficients.
Reduced MIP has 357 rows, 406 columns, and 1599 nonzeros.
Reduced MIP has 356 binaries, 24 generals, 0 SOSs, and 0 indicators.
Presolve time = 0.00 sec. (1.09 ticks)
Probing time = 0.00 sec. (1.22 ticks)
Clique table members: 1217.
MIP emphasis: balance optimality and feasibility.
MIP search method: dynamic search.
Parallel mode: none, using 1 thread.
Root relaxation solution time = 0.00 sec. (3.74 ticks)

        Nodes                                         Cuts/
   Node  Left     Objective  IInf  Best Integer    Best Bound    ItCnt     Gap

*     0+    0                           -0.8873      347.5700              --- 
      0     0      218.0024    91       -0.8873      218.0024      317     --- 
      0     0      198.2543    91       -0.8873     Cuts: 180      441     --- 
      0     0      189.7894    91       -0.8873     Cuts: 178      611     --- 
      0     0      189.6620    91       -0.8873      Cuts: 83      654     --- 
      0     0      189.5923    91       -0.8873      Cuts: 64      688     --- 
      0     0      189.4187    91       -0.8873      Cuts: 50      722     --- 
Detecting symmetries...
      0     0      189.2965    91       -0.8873      Cuts: 38      760     --- 
      0     0      188.8160    91       -0.8873      Cuts: 53      802     --- 
      0     0      188.5990    91       -0.8873      Cuts: 76      841     --- 
      0     0      188.5839    91       -0.8873      Cuts: 56      869     --- 
      0     0      188.4773    91       -0.8873      Cuts: 35      907     --- 
      0     0      188.2923    91       -0.8873      Cuts: 71      947     --- 
      0     0      188.2571    91       -0.8873      Cuts: 30      968     --- 
      0     0      188.2376    91       -0.8873      Cuts: 24      989     --- 
*     0+    0                          124.0986      188.2376            51.68%
Detecting symmetries...
      0     2      188.2376   129      124.0986      188.1652      989   51.63%
Elapsed time = 0.14 sec. (127.86 ticks, tree = 0.01 MB, solutions = 1)
*    20+   16                          154.8249      186.3964            20.39%
    313   210      165.2851    91      154.8249      178.8478     9419   15.52%
*   330+  207                          156.0855      178.6588            14.46%
*   422   229      integral     0      156.8052      175.7943    13537   12.11%
*   450+  238                          157.5782      175.4831            11.36%
    532   271      163.5468    74      157.5782      174.4260    16194   10.69%
*   550+  272                          157.5787      174.3373            10.64%
*   646   251      integral     0      161.4578      173.3967    18492    7.39%
    790   272      166.0263    26      161.4578      171.6419    23393    6.31%
   1073   222      162.9606    37      161.4578      167.4420    31017    3.71%

Clique cuts applied:  19
Cover cuts applied:  4
Implied bound cuts applied:  188
Flow cuts applied:  3
Mixed integer rounding cuts applied:  25
Zero-half cuts applied:  17
Lift and project cuts applied:  3
Gomory fractional cuts applied:  3

Root node processing (before b&c):
  Real time             =    0.14 sec. (127.92 ticks)
Sequential b&c:
  Real time             =    1.09 sec. (1144.84 ticks)
                          ------------
Total (root+branch&cut) =    1.23 sec. (1272.76 ticks)

Solution pool: 8 solutions saved.

MIP - Integer optimal, tolerance (0.0001/1e-06):  Objective =  1.6145782316e+02
Current MIP best bound =  1.6146010195e+02 (gap = 0.00227879, 0.00%)
Solution time =    1.23 sec.  Iterations = 36656  Nodes = 1426 (3)
Deterministic time = 1272.76 ticks  (1030.72 ticks/sec)


Incumbent solution
Variable Name           Solution Value
F                           180.000000
f1                            0.912177
f2                           17.630000
y69                           1.000000
y80                           1.000000
y5                            1.000000
y181                          1.000000
y35                           1.000000
y133                          1.000000
y11                           1.000000
y107                          1.000000
y117                          1.000000
y60                           1.000000
s25                           6.000000
s46                           6.000000
s69                           6.121832
s84                           6.000000
s104                          6.000000
s108                          6.000000
s109                          6.000000
s119                          6.000000
s159                          6.000000
s167                          6.000000
s134                          6.010000
s115                          6.020000
s2                            6.030000
s80                           6.580390
s92                           6.270000
s5                            6.643593
s181                          6.532032
s67                           6.480000
s122                          6.570000
s126                          6.580000
s144                          6.610000
s35                           7.630237
s77                           6.700000
s133                          7.570905
s11                           7.456230
s107                          7.747088
s121                          6.810000
s171                          6.810000
s55                           6.850000
s93                           6.940000
s15                           6.980000
s117                          7.850689
s59                           7.040000
s60                           8.007240
x33x35x1                      1.000000
x160x5x1                      1.000000
x177x181x1                    1.000000
x177x80x2                     1.000000
x111x35x2                     1.000000
x111x11x2                     1.000000
x173x80x2                     1.000000
x140x69x2                     2.000000
x33x133x3                     1.000000
x160x5x3                      1.000000
x173x181x3                    1.000000
x69x11x2                      1.000000
x69x117x2                     1.000000
x80x107x2                     1.000000
x80x60x2                      1.000000
x5x107x1                      1.000000
x5x117x3                      1.000000
x181x60x1                     1.000000
x181x133x3                    1.000000
x35x0x1                       1.000000
x35x0x2                       1.000000
x133x0x3                      2.000000
x11x0x2                       2.000000
x107x0x1                      1.000000
x107x0x2                      1.000000
x117x0x2                      1.000000
x117x0x3                      1.000000
x60x0x1                       1.000000
x60x0x2                       1.000000
s33                           5.247651
z33z35z1                      1.000000
z33z133z3                     1.000000
s160                          5.093138
z160z5z1                      1.000000
z160z5z3                      1.000000
z160z133z3                    1.000000
z160z59z1                     1.000000
s177                          5.122355
z177z80z2                     1.000000
z177z181z1                    1.000000
z177z122z2                    1.000000
z177z11z2                     1.000000
z177z59z1                     1.000000
s111                          5.615304
z111z35z2                     1.000000
z111z11z2                     1.000000
s173                          4.780920
z173z80z2                     1.000000
z173z181z3                    1.000000
z173z122z2                    1.000000
z173z133z3                    1.000000
z173z11z2                     1.000000
s140                          4.795420
z140z69z2                     1.000000
z140z122z2                    1.000000
z140z126z2                    1.000000
z140z11z2                     1.000000
z69z11z2                      1.000000
z69z117z2                     1.000000
z80z107z2                     1.000000
z80z60z2                      1.000000
z5z107z1                      1.000000
z5z117z3                      1.000000
z181z133z3                    1.000000
z181z60z1                     1.000000
All other variables in the range 1-1084 are 0.
